NAME : portcgen-23-20
COMMENT : portcgen N=23, seed=20
TYPE : TSP
DIMENSION : 23
EDGE_WEIGHT_TYPE : EUC_2D
NODE_COORD_SECTION
1 302890 -86083
2 -119452 -22822
3 -572938 235457
4 172913 38232
5 104972 410873
6 -96989 -252082
7 4193 9842
8 -59469 -803609
9 104584 213544
10 131285 -118039
11 -131967 28121
12 85629 -149952
13 -220293 -123881
14 -152680 85250
15 431520 -400794
16 118800 -174633
17 183341 173906
18 72269 147940
19 -96758 -228451
20 132905 -194574
21 -117089 207565
22 -148813 -448211
23 -179572 -68656
